(set-logic QF_S)
(declare-fun var0 () String)
(declare-fun var1 () String)
(declare-fun var2 () String)
(declare-fun var3 () String)
(declare-fun var4 () String)
(declare-fun var5 () String)
(declare-fun var6 () String)
(declare-fun var7 () String)
(declare-fun var8 () String)
(declare-fun var9 () String)
(declare-fun var10 () String)
(declare-fun var11 () String)
(declare-fun var12 () String)
(declare-fun var13 () String)
(declare-fun var14 () String)
(declare-fun var15 () String)
(declare-fun var16 () String)
(declare-fun var17 () String)
(declare-fun var18 () String)
(declare-fun var19 () String)
(declare-fun var20 () String)
(declare-fun var21 () String)
(declare-fun var22 () String)
(declare-fun var23 () String)
(declare-fun var24 () String)
(declare-fun var25 () String)
(declare-fun var26 () String)
(declare-fun var27 () String)
(declare-fun var28 () String)
(declare-fun var29 () String)
(declare-fun var30 () String)
(declare-fun var31 () String)
(declare-fun var32 () String)
(declare-fun var33 () String)
(declare-fun var34 () String)
(declare-fun var35 () String)
(declare-fun var36 () String)
(declare-fun var37 () String)
(declare-fun var38 () String)
(declare-fun var39 () String)
(declare-fun var40 () String)
(declare-fun var41 () String)
(declare-fun var42 () String)
(declare-fun var43 () String)
(declare-fun var44 () String)
(declare-fun var45 () String)
(declare-fun var46 () String)
(declare-fun var47 () String)
(declare-fun var48 () String)
(declare-fun var49 () String)
(declare-fun var50 () String)
(declare-fun var51 () String)
(declare-fun var52 () String)
(declare-fun var53 () String)
(declare-fun var54 () String)
(declare-fun var55 () String)
(declare-fun var56 () String)
(declare-fun var57 () String)
(declare-fun var58 () String)
(declare-fun var59 () String)
(declare-fun var60 () String)
(assert (= var0 (Concat var1 var2)))
(assert (= var2 (Concat var3 var4)))
(assert (= var4 (Concat var5 var6)))
(assert (= var6 (Concat var7 var8)))
(assert (= var8 (Concat var9 var10)))
(assert (= var10 (Concat var11 var12)))
(assert (= var12 (Concat var13 var14)))
(assert (= var14 (Concat var15 var16)))
(assert (= var16 (Concat var17 var18)))
(assert (= var18 (Concat var19 var20)))
(assert (= var20 (Concat var21 var22)))
(assert (= var22 (Concat var23 var24)))
(assert (= var24 (Concat var25 var26)))
(assert (= var26 (Concat var27 var28)))
(assert (= var28 (Concat var29 var30)))
(assert (= var30 (Concat var31 var32)))
(assert (= var32 (Concat var33 var34)))
(assert (= var34 (Concat var35 var36)))
(assert (= var36 (Concat var37 var38)))
(assert (= var38 (Concat var39 var40)))
(assert (= var40 (Concat var41 var42)))
(assert (= var42 (Concat var43 var44)))
(assert (= var44 (Concat var45 var46)))
(assert (= var46 (Concat var47 var48)))
(assert (= var48 (Concat var49 var50)))
(assert (= var50 (Concat var51 var52)))
(assert (= var52 (Concat var53 var54)))
(assert (= var54 (Concat var55 var56)))
(assert (= var56 (Concat var57 var58)))
(assert (= var58 (Concat var59 var60)))
(assert (= var0 "solution"))
(assert (= "<" (CharAt var26 736)))
(assert (= "5" (CharAt var19 153)))
(assert (= "L" (CharAt var16 417)))
(assert (= "`" (CharAt var29 697)))
(assert (= "g" (CharAt var26 822)))
(assert (= "L" (CharAt var4 205)))
(assert (= "8" (CharAt var21 263)))
(assert (= "C" (CharAt var53 944)))
(assert (= "M" (CharAt var12 55)))
(assert (= "t" (CharAt var31 503)))
(assert (= "X" (CharAt var33 932)))
(assert (= "a" (CharAt var34 785)))
(assert (= "G" (CharAt var41 314)))
(assert (= "," (CharAt var20 206)))
(assert (= "O" (CharAt var17 277)))
(assert (= "G" (CharAt var11 735)))
(assert (= "6" (CharAt var38 301)))
(assert (= "L" (CharAt var10 157)))
(assert (= "1" (CharAt var2 67)))
(assert (= "4" (CharAt var3 20)))
(assert (= "|" (CharAt var49 154)))
(assert (= "@" (CharAt var25 119)))
(assert (= "n" (CharAt var16 395)))
(assert (= "e" (CharAt var8 440)))
(assert (= "u" (CharAt var7 220)))
(assert (= "c" (CharAt var27 418)))
(assert (= "(" (CharAt var45 636)))
(assert (= "." (CharAt var55 569)))
(assert (= "?" (CharAt var25 301)))
(assert (= "^" (CharAt var58 935)))
(assert (= "}" (CharAt var14 717)))
(assert (= "f" (CharAt var29 246)))
(assert (= "H" (CharAt var12 73)))
(assert (= "}" (CharAt var17 534)))
(assert (= "Y" (CharAt var19 255)))
(assert (= "-" (CharAt var31 661)))
(assert (= "C" (CharAt var28 852)))
(assert (= "F" (CharAt var28 633)))
(assert (= "8" (CharAt var2 108)))
(assert (= "e" (CharAt var21 102)))
(assert (= "+" (CharAt var51 957)))
(assert (= "-" (CharAt var38 47)))
(assert (= "m" (CharAt var19 648)))
(assert (= "j" (CharAt var46 829)))
(assert (= "8" (CharAt var3 266)))
(assert (= "2" (CharAt var19 754)))
(assert (= "4" (CharAt var11 814)))
(assert (= "}" (CharAt var17 179)))
(assert (= "[" (CharAt var4 333)))
(assert (= "9" (CharAt var19 163)))
(assert (= "K" (CharAt var14 880)))
(assert (= "&" (CharAt var22 622)))
(assert (= "{" (CharAt var26 819)))
(assert (= "y" (CharAt var18 612)))
(assert (= "7" (CharAt var54 362)))
(assert (= "d" (CharAt var47 876)))
(assert (= "I" (CharAt var51 944)))
(assert (= "C" (CharAt var60 442)))
(assert (= "e" (CharAt var25 805)))
(assert (= "1" (CharAt var43 592)))
(assert (= "," (CharAt var53 122)))
(assert (= "3" (CharAt var53 680)))
(assert (= "K" (CharAt var54 993)))
(assert (= "y" (CharAt var59 149)))
(assert (= "4" (CharAt var47 918)))
(assert (= "a" (CharAt var36 10)))
(assert (= "'" (CharAt var21 7)))
(assert (= "/" (CharAt var35 338)))
(assert (= "2" (CharAt var54 719)))
(assert (= "." (CharAt var25 336)))
(assert (= "s" (CharAt var30 446)))
(assert (= "_" (CharAt var1 957)))
(assert (= "a" (CharAt var55 843)))
(assert (= "J" (CharAt var14 735)))
(assert (= "z" (CharAt var28 59)))
(assert (= "[" (CharAt var38 473)))
(assert (= "[" (CharAt var25 558)))
(assert (= "a" (CharAt var47 783)))
(assert (= "Y" (CharAt var16 779)))
(assert (= "u" (CharAt var53 574)))
(assert (= "(" (CharAt var40 747)))
(assert (= "]" (CharAt var37 363)))
(assert (= "M" (CharAt var37 598)))
(assert (= "t" (CharAt var17 356)))
(assert (= "_" (CharAt var27 278)))
(assert (= "9" (CharAt var35 619)))
(assert (= "X" (CharAt var5 924)))
(assert (= "`" (CharAt var11 564)))
(assert (= "Q" (CharAt var7 509)))
(assert (= "Z" (CharAt var37 982)))
(assert (= "x" (CharAt var17 506)))
(assert (= "E" (CharAt var32 59)))
(assert (= "a" (CharAt var16 228)))
(assert (= "T" (CharAt var40 158)))
(assert (= "v" (CharAt var33 40)))
(assert (= "%" (CharAt var45 902)))
(assert (= "e" (CharAt var14 365)))
(assert (= "l" (CharAt var2 20)))
(assert (= "[" (CharAt var40 248)))
(assert (= "p" (CharAt var51 377)))
(assert (= "H" (CharAt var55 297)))
(assert (= "." (CharAt var60 812)))
(assert (= "g" (CharAt var38 476)))
(assert (= "X" (CharAt var26 645)))
(assert (= "@" (CharAt var28 487)))
(assert (= "#" (CharAt var13 22)))
(assert (= "@" (CharAt var38 268)))
(assert (= "<" (CharAt var38 379)))
(assert (= "(" (CharAt var48 263)))
(assert (= "+" (CharAt var43 109)))
(assert (= "H" (CharAt var48 752)))
(assert (= "W" (CharAt var55 143)))
(assert (= "!" (CharAt var7 951)))
(assert (= "I" (CharAt var33 531)))
(assert (= "u" (CharAt var19 882)))
(assert (= "Z" (CharAt var30 638)))
(assert (= "q" (CharAt var60 416)))
(assert (= "t" (CharAt var55 80)))
(assert (= "A" (CharAt var31 316)))
(assert (= "c" (CharAt var7 974)))
(assert (= "^" (CharAt var44 722)))
(assert (= "l" (CharAt var9 440)))
(assert (= "`" (CharAt var8 797)))
(assert (= "o" (CharAt var42 132)))
(assert (= "d" (CharAt var48 257)))
(assert (= "u" (CharAt var41 362)))
(assert (= "o" (CharAt var31 879)))
(assert (= "k" (CharAt var46 383)))
(assert (= "B" (CharAt var10 231)))
(assert (= ":" (CharAt var3 180)))
(assert (= ":" (CharAt var38 819)))
(assert (= "u" (CharAt var2 567)))
(assert (= "h" (CharAt var35 445)))
(assert (= "~" (CharAt var36 86)))
(assert (= "5" (CharAt var9 442)))
(assert (= "5" (CharAt var51 117)))
(assert (= "7" (CharAt var8 1000)))
(assert (= "}" (CharAt var43 350)))
(assert (= "o" (CharAt var35 389)))
(assert (= "`" (CharAt var25 436)))
(assert (= "|" (CharAt var57 712)))
(assert (= "Q" (CharAt var38 99)))
(assert (= "?" (CharAt var14 325)))
(assert (= "l" (CharAt var3 224)))
(assert (= "4" (CharAt var28 552)))
(assert (= "m" (CharAt var5 787)))
(assert (= "c" (CharAt var44 59)))
(assert (= "k" (CharAt var23 60)))
(assert (= "x" (CharAt var16 511)))
(assert (= "5" (CharAt var47 332)))
(assert (= "U" (CharAt var44 745)))
(assert (= "v" (CharAt var49 711)))
(assert (= "W" (CharAt var28 933)))
(assert (= "R" (CharAt var11 414)))
(assert (= "*" (CharAt var28 92)))
(assert (= "F" (CharAt var6 383)))
(assert (= "C" (CharAt var49 300)))
(assert (= "," (CharAt var56 465)))
(assert (= "@" (CharAt var25 946)))
(assert (= "[" (CharAt var36 561)))
(assert (= "C" (CharAt var2 83)))
(assert (= "\\" (CharAt var55 366)))
(assert (= "?" (CharAt var60 569)))
(assert (= "x" (CharAt var57 515)))
(assert (= "V" (CharAt var45 97)))
(assert (= ":" (CharAt var57 981)))
(assert (= "a" (CharAt var8 755)))
(assert (= "c" (CharAt var9 493)))
(assert (= "M" (CharAt var29 136)))
(assert (= "F" (CharAt var36 196)))
(assert (= ">" (CharAt var45 218)))
(assert (= "b" (CharAt var48 976)))
(assert (= "p" (CharAt var22 859)))
(assert (= "j" (CharAt var2 217)))
(assert (= "k" (CharAt var39 759)))
(assert (= "V" (CharAt var2 758)))
(assert (= "0" (CharAt var39 820)))
(assert (= ")" (CharAt var17 393)))
(assert (= "3" (CharAt var56 332)))
(assert (= "K" (CharAt var25 179)))
(assert (= "y" (CharAt var36 790)))
(assert (= "2" (CharAt var26 289)))
(assert (= "a" (CharAt var21 98)))
(assert (= "q" (CharAt var34 488)))
(assert (= "E" (CharAt var51 335)))
(assert (= "a" (CharAt var55 189)))
(assert (= "X" (CharAt var16 52)))
(assert (= "K" (CharAt var1 411)))
(assert (= "9" (CharAt var36 99)))
(assert (= ">" (CharAt var21 129)))
(assert (= "{" (CharAt var6 412)))
(assert (= "f" (CharAt var25 602)))
(assert (= "*" (CharAt var28 348)))
(assert (= "Z" (CharAt var55 248)))
(assert (= "K" (CharAt var4 258)))
(assert (= "F" (CharAt var49 457)))
(assert (= "s" (CharAt var15 49)))
(assert (= "w" (CharAt var11 403)))
(assert (= "j" (CharAt var30 334)))
(assert (= "S" (CharAt var31 186)))
(assert (= "1" (CharAt var13 98)))
(assert (= "5" (CharAt var31 137)))
(assert (= "I" (CharAt var36 924)))
(assert (= "`" (CharAt var45 25)))
(assert (= "i" (CharAt var5 993)))
(assert (= "=" (CharAt var50 639)))
(assert (= "M" (CharAt var23 840)))
(assert (= "J" (CharAt var9 542)))
(assert (= "|" (CharAt var46 436)))
(assert (= "}" (CharAt var14 859)))
(assert (= "d" (CharAt var54 554)))
(assert (= "L" (CharAt var58 322)))
(assert (= "~" (CharAt var20 95)))
(assert (= "m" (CharAt var14 159)))
(assert (= "I" (CharAt var14 64)))
(assert (= "T" (CharAt var54 449)))
(assert (= "D" (CharAt var27 537)))
(assert (= "q" (CharAt var34 1000)))
(assert (= "p" (CharAt var7 250)))
(assert (= "A" (CharAt var41 485)))
(assert (= "[" (CharAt var19 20)))
(assert (= "4" (CharAt var29 102)))
(assert (= "$" (CharAt var0 56)))
(assert (= "9" (CharAt var31 311)))
(assert (= "z" (CharAt var23 61)))
(assert (= "U" (CharAt var23 343)))
(assert (= ":" (CharAt var53 918)))
(assert (= "X" (CharAt var45 968)))
(assert (= "2" (CharAt var6 729)))
(assert (= "D" (CharAt var50 198)))
(assert (= "\"" (CharAt var57 282)))
(assert (= "W" (CharAt var38 878)))
(assert (= "6" (CharAt var59 707)))
(assert (= "0" (CharAt var10 838)))
(assert (= "p" (CharAt var59 481)))
(assert (= ">" (CharAt var59 462)))
(assert (= "q" (CharAt var31 47)))
(assert (= "$" (CharAt var47 788)))
(assert (= "Z" (CharAt var3 290)))
(assert (= "@" (CharAt var40 120)))
(assert (= "3" (CharAt var16 753)))
(assert (= "|" (CharAt var59 760)))
(assert (= "I" (CharAt var15 772)))
(assert (= "r" (CharAt var16 508)))
(assert (= "_" (CharAt var54 534)))
(assert (= ")" (CharAt var38 424)))
(assert (= "^" (CharAt var3 64)))
(assert (= "u" (CharAt var21 322)))
(assert (= "A" (CharAt var45 158)))
(assert (= "C" (CharAt var18 280)))
(assert (= "." (CharAt var60 641)))
(assert (= "`" (CharAt var8 954)))
(assert (= "K" (CharAt var18 74)))
(assert (= "E" (CharAt var3 383)))
(assert (= "5" (CharAt var21 551)))
(assert (= "o" (CharAt var18 239)))
(assert (= "\\" (CharAt var55 239)))
(assert (= "+" (CharAt var53 746)))
(assert (= "S" (CharAt var2 327)))
(assert (= "0" (CharAt var55 834)))
(assert (= "E" (CharAt var45 656)))
(assert (= "7" (CharAt var34 221)))
(assert (= "#" (CharAt var51 205)))
(assert (= "Q" (CharAt var2 852)))
(assert (= "e" (CharAt var28 465)))
(assert (= ">" (CharAt var9 763)))
(assert (= "y" (CharAt var35 920)))
(assert (= "\\" (CharAt var59 697)))
(assert (= "u" (CharAt var56 125)))
(assert (= "7" (CharAt var53 940)))
(assert (= "&" (CharAt var8 800)))
(assert (= "`" (CharAt var40 432)))
(assert (= "^" (CharAt var16 611)))
(assert (= "3" (CharAt var57 694)))
(assert (= ";" (CharAt var44 172)))
(assert (= "J" (CharAt var53 784)))
(assert (= "0" (CharAt var40 617)))
(assert (= "/" (CharAt var35 26)))
(assert (= "<" (CharAt var32 164)))
(assert (= "5" (CharAt var45 253)))
(assert (= "$" (CharAt var34 457)))
(assert (= "C" (CharAt var57 384)))
(assert (= "e" (CharAt var40 801)))
(assert (= "2" (CharAt var9 31)))
(assert (= "3" (CharAt var4 778)))
(assert (= "N" (CharAt var28 27)))
(assert (= "c" (CharAt var46 837)))
(assert (= "J" (CharAt var4 620)))
(assert (= "b" (CharAt var27 400)))
(assert (= "!" (CharAt var36 437)))
(assert (= "#" (CharAt var11 114)))
(assert (= "e" (CharAt var58 213)))
(assert (= ";" (CharAt var6 64)))
(assert (= "P" (CharAt var3 313)))
(assert (= "p" (CharAt var15 897)))
(assert (= "_" (CharAt var21 650)))
(assert (= ":" (CharAt var53 468)))
(assert (= "9" (CharAt var47 609)))
(assert (= "9" (CharAt var13 924)))
(assert (= "c" (CharAt var57 558)))
(assert (= "C" (CharAt var42 624)))
(assert (= "d" (CharAt var15 960)))
(assert (= "L" (CharAt var53 98)))
(assert (= "1" (CharAt var35 237)))
(assert (= ")" (CharAt var59 506)))
(assert (= "E" (CharAt var9 97)))
(assert (= "H" (CharAt var32 965)))
(assert (= "I" (CharAt var20 79)))
(assert (= "|" (CharAt var32 876)))
(assert (= "D" (CharAt var25 293)))
(assert (= "0" (CharAt var34 738)))
(assert (= "I" (CharAt var12 161)))
(assert (= "~" (CharAt var14 879)))
(assert (= "U" (CharAt var14 890)))
(assert (= "z" (CharAt var11 689)))
(assert (= ":" (CharAt var48 306)))
(assert (= "Z" (CharAt var40 442)))
(assert (= "Z" (CharAt var9 506)))
(assert (= "6" (CharAt var35 155)))
(assert (= "=" (CharAt var15 739)))
(assert (= "f" (CharAt var44 859)))
(assert (= "t" (CharAt var24 713)))
(assert (= "h" (CharAt var16 703)))
(assert (= "r" (CharAt var50 568)))
(assert (= "^" (CharAt var29 243)))
(assert (= "$" (CharAt var27 925)))
(assert (= "*" (CharAt var14 343)))
(assert (= "]" (CharAt var14 406)))
(assert (= "7" (CharAt var53 485)))
(assert (= "N" (CharAt var42 742)))
(assert (= "|" (CharAt var39 349)))
(assert (= "'" (CharAt var15 95)))
(assert (= ";" (CharAt var0 907)))
(assert (= "q" (CharAt var58 502)))
(assert (= "R" (CharAt var44 385)))
(assert (= "7" (CharAt var50 992)))
(assert (= "\\" (CharAt var2 487)))
(assert (= "4" (CharAt var18 562)))
(assert (= "!" (CharAt var41 965)))
(assert (= "r" (CharAt var14 457)))
(assert (= "C" (CharAt var10 306)))
(assert (= "j" (CharAt var28 467)))
(assert (= "v" (CharAt var3 427)))
(assert (= "l" (CharAt var21 458)))
(assert (= ";" (CharAt var27 586)))
(assert (= "=" (CharAt var56 1)))
(assert (= "(" (CharAt var4 31)))
(assert (= "T" (CharAt var0 825)))
(assert (= "{" (CharAt var14 27)))
(assert (= "x" (CharAt var11 80)))
(assert (= "+" (CharAt var17 532)))
(assert (= "~" (CharAt var43 335)))
(assert (= "b" (CharAt var37 710)))
(assert (= "x" (CharAt var18 807)))
(assert (= "i" (CharAt var15 53)))
(assert (= "v" (CharAt var44 730)))
(assert (= ":" (CharAt var52 904)))
(assert (= "&" (CharAt var38 444)))
(assert (= "3" (CharAt var31 652)))
(assert (= "'" (CharAt var6 634)))
(assert (= "7" (CharAt var11 283)))
(assert (= "5" (CharAt var38 807)))
(assert (= "7" (CharAt var52 119)))
(assert (= "q" (CharAt var6 824)))
(assert (= "y" (CharAt var43 1000)))
(assert (= ":" (CharAt var19 890)))
(assert (= "P" (CharAt var59 521)))
(assert (= "#" (CharAt var48 784)))
(assert (= "7" (CharAt var28 676)))
(assert (= "=" (CharAt var28 202)))
(assert (= "4" (CharAt var42 835)))
(assert (= "W" (CharAt var43 333)))
(assert (= "n" (CharAt var22 829)))
(assert (= "_" (CharAt var46 584)))
(assert (= "u" (CharAt var28 854)))
(assert (= "S" (CharAt var54 97)))
(assert (= "d" (CharAt var30 509)))
(assert (= "h" (CharAt var27 649)))
(assert (= "O" (CharAt var28 82)))
(assert (= ")" (CharAt var20 451)))
(assert (= "%" (CharAt var59 305)))
(assert (= "u" (CharAt var26 293)))
(assert (= "W" (CharAt var47 252)))
(assert (= "x" (CharAt var16 109)))
(assert (= "*" (CharAt var27 150)))
(assert (= "^" (CharAt var23 686)))
(assert (= "n" (CharAt var20 808)))
(assert (= "8" (CharAt var5 328)))
(assert (= "E" (CharAt var53 138)))
(assert (= "." (CharAt var32 24)))
(assert (= ":" (CharAt var22 473)))
(assert (= "c" (CharAt var37 894)))
(assert (= "R" (CharAt var25 656)))
(assert (= "R" (CharAt var7 340)))
(assert (= "l" (CharAt var53 116)))
(assert (= "!" (CharAt var4 47)))
(assert (= "3" (CharAt var43 646)))
(assert (= "$" (CharAt var6 788)))
(assert (= "{" (CharAt var50 603)))
(assert (= "&" (CharAt var18 527)))
(assert (= "k" (CharAt var1 750)))
(assert (= "/" (CharAt var51 452)))
(assert (= "o" (CharAt var27 819)))
(assert (= "B" (CharAt var39 525)))
(assert (= "v" (CharAt var57 702)))
(assert (= "3" (CharAt var35 841)))
(assert (= "g" (CharAt var58 776)))
(assert (= "~" (CharAt var22 51)))
(assert (= "l" (CharAt var21 638)))
(assert (= "7" (CharAt var35 267)))
(assert (= "`" (CharAt var20 277)))
(assert (= "m" (CharAt var14 503)))
(assert (= "j" (CharAt var20 653)))
(assert (= "K" (CharAt var17 280)))
(assert (= "3" (CharAt var57 165)))
(assert (= "\\" (CharAt var50 598)))
(assert (= "i" (CharAt var21 88)))
(assert (= "%" (CharAt var35 239)))
(assert (= "$" (CharAt var32 227)))
(assert (= "V" (CharAt var25 517)))
(assert (= "o" (CharAt var32 682)))
(assert (= "A" (CharAt var12 992)))
(assert (= "O" (CharAt var3 630)))
(assert (= "4" (CharAt var37 514)))
(assert (= "9" (CharAt var1 515)))
(assert (= "(" (CharAt var9 896)))
(assert (= "<" (CharAt var59 837)))
(assert (= "-" (CharAt var39 730)))
(assert (= "0" (CharAt var13 12)))
(assert (= "j" (CharAt var3 142)))
(assert (= "[" (CharAt var46 349)))
(assert (= "-" (CharAt var25 611)))
(assert (= "e" (CharAt var0 950)))
(assert (= "C" (CharAt var10 795)))
(assert (= "4" (CharAt var23 236)))
(assert (= "I" (CharAt var43 107)))
(assert (= "F" (CharAt var43 176)))
(assert (= "7" (CharAt var38 724)))
(assert (= "x" (CharAt var16 465)))
(assert (= "O" (CharAt var40 126)))
(assert (= "f" (CharAt var42 457)))
(assert (= "1" (CharAt var57 525)))
(assert (= ">" (CharAt var34 233)))
(assert (= "Y" (CharAt var10 166)))
(assert (= "{" (CharAt var32 508)))
(assert (= "," (CharAt var37 347)))
(assert (= "3" (CharAt var17 287)))
(assert (= "M" (CharAt var43 910)))
(assert (= "]" (CharAt var53 285)))
(assert (= "]" (CharAt var14 449)))
(assert (= "8" (CharAt var1 371)))
(assert (= "~" (CharAt var53 806)))
(assert (= "p" (CharAt var56 891)))
(assert (= "\"" (CharAt var23 921)))
(assert (= "(" (CharAt var10 547)))
(assert (= "'" (CharAt var42 730)))
(assert (= "A" (CharAt var1 866)))
(assert (= "o" (CharAt var59 636)))
(assert (= "y" (CharAt var23 573)))
(assert (= "(" (CharAt var38 340)))
(assert (= "N" (CharAt var48 724)))
(assert (= "I" (CharAt var32 136)))
(assert (= "=" (CharAt var11 109)))
(assert (= "J" (CharAt var49 881)))
(assert (= "B" (CharAt var45 83)))
(assert (= "{" (CharAt var25 242)))
(assert (= "{" (CharAt var45 223)))
(assert (= "|" (CharAt var3 386)))
(assert (= "E" (CharAt var28 243)))
(assert (= ")" (CharAt var50 232)))
(assert (= "k" (CharAt var0 657)))
(assert (= "#" (CharAt var51 837)))
(assert (= "M" (CharAt var35 319)))
(assert (= "'" (CharAt var53 406)))
(assert (= "M" (CharAt var43 246)))
(assert (= "z" (CharAt var41 237)))
(assert (= "." (CharAt var33 703)))
(assert (= "b" (CharAt var5 638)))
(assert (= "n" (CharAt var18 584)))
(assert (= "$" (CharAt var15 51)))
(assert (= "I" (CharAt var24 395)))
(assert (= "s" (CharAt var58 589)))
(assert (= "." (CharAt var49 277)))
(assert (= "~" (CharAt var57 94)))
(assert (= "U" (CharAt var41 114)))
(assert (= "E" (CharAt var15 294)))
(assert (= "`" (CharAt var51 562)))
(assert (= "Q" (CharAt var7 260)))
(assert (= "^" (CharAt var4 364)))
(assert (= "G" (CharAt var42 602)))
(assert (= "I" (CharAt var23 838)))
(assert (= "u" (CharAt var28 935)))
(assert (= "7" (CharAt var22 480)))
(assert (= "s" (CharAt var26 371)))
(assert (= "9" (CharAt var37 268)))
(assert (= "O" (CharAt var8 931)))
(assert (= "Y" (CharAt var13 649)))
(assert (= "X" (CharAt var6 70)))
(assert (= "2" (CharAt var42 555)))
(assert (= "'" (CharAt var9 159)))
(assert (= "|" (CharAt var39 708)))
(assert (= "=" (CharAt var11 821)))
(assert (= "." (CharAt var0 637)))
(assert (= "$" (CharAt var1 30)))
(assert (= "*" (CharAt var32 432)))
(assert (= "_" (CharAt var58 605)))
(assert (= "/" (CharAt var52 568)))
(assert (= "~" (CharAt var36 6)))
(assert (= "F" (CharAt var23 409)))
(assert (= "F" (CharAt var30 873)))
(assert (= "&" (CharAt var23 422)))
(assert (= "g" (CharAt var35 214)))
(assert (= "f" (CharAt var51 713)))
(assert (= "S" (CharAt var37 891)))
(assert (= "1" (CharAt var23 854)))
(assert (= "u" (CharAt var54 749)))
(assert (= "?" (CharAt var38 696)))
(assert (= "{" (CharAt var49 965)))
(assert (= "0" (CharAt var21 230)))
(assert (= "Y" (CharAt var19 423)))
(assert (= "]" (CharAt var26 144)))
(assert (= "y" (CharAt var43 83)))
(assert (= "g" (CharAt var22 794)))
(assert (= "8" (CharAt var59 172)))
(assert (= "7" (CharAt var53 227)))
(assert (= "A" (CharAt var48 957)))
(assert (= "p" (CharAt var57 633)))
(assert (= "\"" (CharAt var12 816)))
(assert (= "1" (CharAt var8 527)))
(assert (= "g" (CharAt var2 60)))
(assert (= "D" (CharAt var46 266)))
(assert (= "j" (CharAt var48 644)))
(assert (= "o" (CharAt var23 203)))
(assert (= "f" (CharAt var37 343)))
(assert (= "&" (CharAt var52 88)))
(assert (= "v" (CharAt var33 739)))
(assert (= "y" (CharAt var37 860)))
(assert (= "B" (CharAt var40 591)))
(assert (= "N" (CharAt var22 774)))
(assert (= "Y" (CharAt var60 35)))
(assert (= "1" (CharAt var15 434)))
(assert (= "X" (CharAt var16 257)))
(assert (= "<" (CharAt var2 37)))
(assert (= "%" (CharAt var6 693)))
(assert (= "(" (CharAt var38 925)))
(assert (= "5" (CharAt var53 859)))
(assert (= "K" (CharAt var42 508)))
(assert (= "=" (CharAt var18 308)))
(assert (= "c" (CharAt var57 34)))
(assert (= "&" (CharAt var55 264)))
(assert (= "0" (CharAt var46 778)))
(assert (= "r" (CharAt var50 791)))
(assert (= "/" (CharAt var1 423)))
(assert (= "W" (CharAt var40 510)))
(assert (= "h" (CharAt var40 208)))
(assert (= "!" (CharAt var23 450)))
(assert (= "U" (CharAt var41 378)))
(assert (= "f" (CharAt var38 68)))
(assert (= ";" (CharAt var11 595)))
(assert (= "D" (CharAt var19 996)))
(assert (= "5" (CharAt var50 952)))
(assert (= "y" (CharAt var12 136)))
(assert (= ";" (CharAt var30 149)))
(assert (= "A" (CharAt var58 773)))
(assert (= "E" (CharAt var34 242)))
(assert (= "M" (CharAt var12 765)))
(assert (= "-" (CharAt var36 69)))
(assert (= "r" (CharAt var1 696)))
(assert (= "d" (CharAt var18 671)))
(assert (= "c" (CharAt var41 717)))
(assert (= "6" (CharAt var20 199)))
(assert (= "[" (CharAt var2 355)))
(assert (= "j" (CharAt var19 696)))
(assert (= "@" (CharAt var25 938)))
(assert (= "V" (CharAt var46 212)))
(assert (= "O" (CharAt var25 579)))
(assert (= "u" (CharAt var7 628)))
(assert (= "l" (CharAt var33 732)))
(assert (= "D" (CharAt var35 132)))
(assert (= "`" (CharAt var34 285)))
(assert (= "j" (CharAt var45 301)))
(assert (= "P" (CharAt var24 641)))
(assert (= "Z" (CharAt var47 595)))
(assert (= "\\" (CharAt var55 892)))
(assert (= "%" (CharAt var38 782)))
(assert (= "_" (CharAt var57 693)))
(assert (= "," (CharAt var36 837)))
(assert (= "D" (CharAt var45 800)))
(assert (= "j" (CharAt var4 468)))
(assert (= ">" (CharAt var6 318)))
(assert (= "[" (CharAt var46 2)))
(assert (= "C" (CharAt var40 104)))
(assert (= "&" (CharAt var43 81)))
(assert (= "m" (CharAt var22 632)))
(assert (= "$" (CharAt var59 260)))
(assert (= "9" (CharAt var57 541)))
(assert (= "&" (CharAt var0 874)))
(assert (= "g" (CharAt var18 320)))
(assert (= "*" (CharAt var35 926)))
(assert (= "V" (CharAt var6 636)))
(assert (= "<" (CharAt var1 322)))
(assert (= "]" (CharAt var54 185)))
(assert (= "k" (CharAt var24 260)))
(assert (= "m" (CharAt var48 214)))
(assert (= "u" (CharAt var14 821)))
(assert (= "U" (CharAt var25 296)))
(assert (= "3" (CharAt var4 114)))
(assert (= "j" (CharAt var46 783)))
(assert (= "2" (CharAt var40 719)))
(assert (= "8" (CharAt var36 565)))
(assert (= "z" (CharAt var4 994)))
(assert (= "L" (CharAt var58 9)))
(assert (= "G" (CharAt var60 670)))
(assert (= "P" (CharAt var0 931)))
(assert (= "H" (CharAt var9 787)))
(assert (= "G" (CharAt var24 333)))
(assert (= "r" (CharAt var16 9)))
(assert (= "Q" (CharAt var25 732)))
(assert (= "v" (CharAt var7 62)))
(assert (= "|" (CharAt var42 873)))
(assert (= "@" (CharAt var20 55)))
(assert (= "y" (CharAt var6 656)))
(assert (= "6" (CharAt var17 363)))
(assert (= "F" (CharAt var23 651)))
(assert (= "L" (CharAt var51 96)))
(assert (= "C" (CharAt var18 810)))
(assert (= "I" (CharAt var24 175)))
(assert (= "Z" (CharAt var2 865)))
(assert (= "c" (CharAt var38 788)))
(assert (= ">" (CharAt var27 989)))
(assert (= "o" (CharAt var11 678)))
(assert (= "i" (CharAt var31 272)))
(assert (= "o" (CharAt var11 179)))
(assert (= "\"" (CharAt var57 589)))
(assert (= "h" (CharAt var0 66)))
(assert (= "!" (CharAt var45 883)))
(assert (= "K" (CharAt var1 745)))
(assert (= "I" (CharAt var4 252)))
(assert (= "3" (CharAt var22 438)))
(assert (= "I" (CharAt var47 335)))
(assert (= "&" (CharAt var57 887)))
(assert (= "N" (CharAt var12 598)))
(assert (= "/" (CharAt var45 767)))
(assert (= "m" (CharAt var24 340)))
(assert (= "v" (CharAt var5 40)))
(assert (= "]" (CharAt var16 353)))
(assert (= "4" (CharAt var55 513)))
(assert (= ">" (CharAt var21 548)))
(assert (= "H" (CharAt var0 916)))
(assert (= "j" (CharAt var58 85)))
(assert (= "X" (CharAt var51 286)))
(assert (= "T" (CharAt var13 670)))
(assert (= "8" (CharAt var53 819)))
(assert (= "]" (CharAt var25 795)))
(assert (= "w" (CharAt var30 442)))
(assert (= "M" (CharAt var25 49)))
(assert (= "?" (CharAt var49 883)))
(assert (= "3" (CharAt var35 721)))
(assert (= "A" (CharAt var17 187)))
(assert (= "a" (CharAt var16 325)))
(assert (= "G" (CharAt var6 409)))
(assert (= "t" (CharAt var59 489)))
(assert (= "P" (CharAt var40 504)))
(assert (= "(" (CharAt var7 508)))
(assert (= "f" (CharAt var34 895)))
(assert (= "u" (CharAt var55 878)))
(assert (= "'" (CharAt var48 693)))
(assert (= "3" (CharAt var40 42)))
(assert (= "%" (CharAt var49 935)))
(assert (= "8" (CharAt var18 675)))
(assert (= "y" (CharAt var1 864)))
(assert (= "z" (CharAt var23 605)))
(assert (= "$" (CharAt var1 753)))
(assert (= "\\" (CharAt var12 213)))
(assert (= "l" (CharAt var60 25)))
(assert (= "e" (CharAt var11 541)))
(assert (= "+" (CharAt var39 95)))
(assert (= "1" (CharAt var30 554)))
(assert (= "Q" (CharAt var34 322)))
(assert (= "*" (CharAt var39 455)))
(assert (= "'" (CharAt var59 852)))
(assert (= "+" (CharAt var53 13)))
(assert (= "7" (CharAt var53 999)))
(assert (= "m" (CharAt var16 384)))
(assert (= "a" (CharAt var21 303)))
(assert (= "b" (CharAt var35 438)))
(assert (= "7" (CharAt var16 84)))
(assert (= "j" (CharAt var42 820)))
(assert (= "," (CharAt var51 754)))
(assert (= "q" (CharAt var24 25)))
(assert (= "B" (CharAt var32 797)))
(assert (= "S" (CharAt var5 506)))
(assert (= "+" (CharAt var27 42)))
(assert (= "h" (CharAt var11 422)))
(assert (= "q" (CharAt var2 813)))
(assert (= "," (CharAt var0 253)))
(assert (= "4" (CharAt var9 809)))
(assert (= "I" (CharAt var56 714)))
(assert (= "I" (CharAt var1 421)))
(assert (= "N" (CharAt var20 776)))
(assert (= "h" (CharAt var38 275)))
(assert (= "d" (CharAt var48 410)))
(assert (= "u" (CharAt var48 794)))
(assert (= "k" (CharAt var13 793)))
(assert (= "Z" (CharAt var52 842)))
(assert (= "X" (CharAt var34 562)))
(assert (= "o" (CharAt var46 981)))
(assert (= "O" (CharAt var0 185)))
(assert (= "_" (CharAt var21 85)))
(assert (= "{" (CharAt var43 494)))
(assert (= "u" (CharAt var32 799)))
(assert (= "T" (CharAt var7 978)))
(assert (= "R" (CharAt var27 984)))
(assert (= "*" (CharAt var53 820)))
(assert (= ":" (CharAt var19 331)))
(assert (= "." (CharAt var34 815)))
(assert (= "_" (CharAt var25 194)))
(assert (= "R" (CharAt var55 520)))
(assert (= "r" (CharAt var39 355)))
(assert (= "J" (CharAt var44 75)))
(assert (= "O" (CharAt var45 370)))
(assert (= "7" (CharAt var23 796)))
(assert (= "B" (CharAt var5 651)))
(assert (= "." (CharAt var0 944)))
(assert (= "z" (CharAt var60 331)))
(assert (= ">" (CharAt var60 26)))
(assert (= "\\" (CharAt var31 566)))
(assert (= "3" (CharAt var13 628)))
(assert (= "&" (CharAt var30 783)))
(assert (= "8" (CharAt var2 447)))
(assert (= "[" (CharAt var31 269)))
(assert (= "C" (CharAt var9 111)))
(assert (= "l" (CharAt var52 918)))
(assert (= "*" (CharAt var33 223)))
(assert (= "0" (CharAt var12 960)))
(assert (= "b" (CharAt var22 573)))
(assert (= "Q" (CharAt var36 321)))
(assert (= "W" (CharAt var0 977)))
(assert (= "\\" (CharAt var47 695)))
(assert (= "4" (CharAt var28 953)))
(assert (= "S" (CharAt var6 479)))
(assert (= "w" (CharAt var35 571)))
(assert (= "W" (CharAt var27 190)))
(assert (= "I" (CharAt var39 422)))
(assert (= "E" (CharAt var60 67)))
(assert (= ":" (CharAt var17 979)))
(assert (= "o" (CharAt var43 770)))
(assert (= "~" (CharAt var38 565)))
(assert (= "W" (CharAt var22 485)))
(assert (= "_" (CharAt var35 439)))
(assert (= "R" (CharAt var37 847)))
(assert (= "y" (CharAt var53 701)))
(assert (= "*" (CharAt var48 212)))
(assert (= "4" (CharAt var41 938)))
(assert (= "y" (CharAt var28 2)))
(assert (= "7" (CharAt var60 687)))
(assert (= "y" (CharAt var40 778)))
(assert (= "U" (CharAt var2 667)))
(assert (= "J" (CharAt var16 24)))
(assert (= "T" (CharAt var44 206)))
(assert (= "x" (CharAt var21 828)))
(assert (= "N" (CharAt var60 463)))
(assert (= "G" (CharAt var17 821)))
(assert (= "%" (CharAt var32 953)))
(assert (= "m" (CharAt var46 831)))
(assert (= "Z" (CharAt var21 406)))
(assert (= "{" (CharAt var54 981)))
(assert (= "$" (CharAt var0 728)))
(assert (= "`" (CharAt var12 438)))
(assert (= "6" (CharAt var34 602)))
(assert (= "@" (CharAt var19 790)))
(assert (= "g" (CharAt var10 741)))
(assert (= "j" (CharAt var15 491)))
(assert (= "D" (CharAt var35 353)))
(assert (= "b" (CharAt var19 303)))
(assert (= "s" (CharAt var33 986)))
(assert (= "x" (CharAt var11 385)))
(assert (= "P" (CharAt var35 173)))
(assert (= "K" (CharAt var6 400)))
(assert (= "P" (CharAt var29 300)))
(assert (= "+" (CharAt var52 379)))
(assert (= "/" (CharAt var4 454)))
(assert (= "E" (CharAt var47 938)))
(assert (= "O" (CharAt var46 832)))
(assert (= "N" (CharAt var20 519)))
(assert (= "o" (CharAt var25 487)))
(assert (= "}" (CharAt var59 254)))
(assert (= "$" (CharAt var21 58)))
(assert (= "'" (CharAt var33 819)))
(assert (= "!" (CharAt var44 982)))
(assert (= ">" (CharAt var19 334)))
(assert (= "x" (CharAt var16 857)))
(assert (= ")" (CharAt var9 642)))
(assert (= "!" (CharAt var4 647)))
(assert (= "j" (CharAt var21 634)))
(assert (= "9" (CharAt var40 486)))
(assert (= "p" (CharAt var16 352)))
(assert (= "/" (CharAt var4 957)))
(assert (= "U" (CharAt var54 506)))
(assert (= "S" (CharAt var39 277)))
(assert (= "m" (CharAt var24 68)))
(assert (= "(" (CharAt var38 820)))
(assert (= "n" (CharAt var57 898)))
(assert (= "Q" (CharAt var46 264)))
(assert (= "%" (CharAt var46 805)))
(assert (= "E" (CharAt var13 292)))
(assert (= "&" (CharAt var12 516)))
(assert (= "F" (CharAt var28 882)))
(assert (= "\\" (CharAt var51 854)))
(assert (= "F" (CharAt var14 706)))
(assert (= "e" (CharAt var16 37)))
(assert (= "j" (CharAt var57 113)))
(assert (= "." (CharAt var22 731)))
(assert (= ";" (CharAt var17 573)))
(assert (= "=" (CharAt var8 429)))
(assert (= "U" (CharAt var47 563)))
(assert (= "S" (CharAt var1 240)))
(assert (= "'" (CharAt var49 942)))
(assert (= "+" (CharAt var51 15)))
(assert (= "K" (CharAt var42 216)))
(assert (= "=" (CharAt var48 39)))
(assert (= "H" (CharAt var27 207)))
(assert (= "h" (CharAt var12 569)))
(assert (= "M" (CharAt var53 977)))
(assert (= "\\" (CharAt var57 729)))
(assert (= "2" (CharAt var14 290)))
(assert (= "." (CharAt var40 547)))
(assert (= "+" (CharAt var53 751)))
(assert (= "<" (CharAt var27 11)))
(assert (= "P" (CharAt var51 36)))
(assert (= "N" (CharAt var8 246)))
(assert (= "a" (CharAt var31 749)))
(assert (= "c" (CharAt var57 236)))
(assert (= "A" (CharAt var59 72)))
(assert (= "^" (CharAt var4 168)))
(assert (= "p" (CharAt var54 943)))
(assert (= "-" (CharAt var8 484)))
(assert (= "?" (CharAt var36 525)))
(assert (= "H" (CharAt var59 318)))
(assert (= "2" (CharAt var6 234)))
(assert (= "U" (CharAt var38 980)))
(assert (= "e" (CharAt var13 35)))
(assert (= "w" (CharAt var42 1000)))
(assert (= "'" (CharAt var21 831)))
(assert (= "x" (CharAt var43 502)))
(assert (= "W" (CharAt var5 595)))
(assert (= "W" (CharAt var13 985)))
(assert (= "X" (CharAt var20 537)))
(assert (= "(" (CharAt var29 340)))
(assert (= "#" (CharAt var34 110)))
(assert (= "=" (CharAt var55 528)))
(assert (= "j" (CharAt var13 507)))
(assert (= "L" (CharAt var32 134)))
(assert (= "0" (CharAt var45 139)))
(assert (= "T" (CharAt var55 588)))
(assert (= "]" (CharAt var12 53)))
(assert (= "R" (CharAt var53 54)))
(assert (= "d" (CharAt var20 721)))
(assert (= "v" (CharAt var50 877)))
(assert (= "s" (CharAt var8 214)))
(assert (= ":" (CharAt var9 190)))
(assert (= "X" (CharAt var34 383)))
(assert (= "#" (CharAt var32 110)))
(assert (= "w" (CharAt var22 406)))
(assert (= "p" (CharAt var8 348)))
(assert (= "Y" (CharAt var1 58)))
(assert (= "W" (CharAt var1 127)))
(assert (= "`" (CharAt var30 798)))
(assert (= "l" (CharAt var43 119)))
(assert (= "}" (CharAt var53 191)))
(assert (= "Z" (CharAt var32 554)))
(assert (= "j" (CharAt var45 177)))
(assert (= "V" (CharAt var31 981)))
(assert (= "&" (CharAt var15 7)))
(assert (= "h" (CharAt var5 576)))
(assert (= "u" (CharAt var43 34)))
(assert (= "E" (CharAt var59 56)))
(assert (= "/" (CharAt var1 461)))
(assert (= "0" (CharAt var55 47)))
(assert (= "C" (CharAt var46 572)))
(assert (= "m" (CharAt var49 240)))
(assert (= "e" (CharAt var20 24)))
(assert (= "'" (CharAt var2 580)))
(assert (= "4" (CharAt var39 217)))
(assert (= "B" (CharAt var28 596)))
(assert (= "h" (CharAt var45 959)))
(assert (= "0" (CharAt var3 416)))
(assert (= "7" (CharAt var57 459)))
(assert (= "1" (CharAt var36 266)))
(assert (= "{" (CharAt var24 691)))
(assert (= "w" (CharAt var26 827)))
(assert (= "G" (CharAt var16 808)))
(assert (= "/" (CharAt var10 736)))
(assert (= "B" (CharAt var22 234)))
(assert (= "b" (CharAt var7 875)))
(assert (= "9" (CharAt var58 563)))
(assert (= "J" (CharAt var60 678)))
(assert (= "l" (CharAt var35 572)))
(assert (= "A" (CharAt var21 51)))
(assert (= "b" (CharAt var20 436)))
(assert (= "7" (CharAt var38 331)))
(assert (= "Y" (CharAt var13 585)))
(assert (= "!" (CharAt var42 114)))
(assert (= "h" (CharAt var19 698)))
(assert (= "," (CharAt var31 896)))
(assert (= ";" (CharAt var9 875)))
(assert (= "$" (CharAt var38 978)))
(assert (= "(" (CharAt var33 996)))
(assert (= "$" (CharAt var21 242)))
(assert (= "5" (CharAt var42 335)))
(assert (= "'" (CharAt var5 586)))
(assert (= "H" (CharAt var53 394)))
(assert (= "_" (CharAt var28 785)))
(assert (= "q" (CharAt var49 215)))
(assert (= "n" (CharAt var51 487)))
(assert (= "l" (CharAt var23 822)))
(assert (= "E" (CharAt var56 564)))
(assert (= "o" (CharAt var44 171)))
(assert (= "K" (CharAt var25 452)))
(assert (= "y" (CharAt var14 863)))
(assert (= "%" (CharAt var19 124)))
(check-sat)